
******************************************************************************
This program contains Ipopt, a library for large-scale nonlinear optimization.
 Ipopt is released as open source code under the Eclipse Public License (EPL).
         For more information visit http://projects.coin-or.org/Ipopt

This version of Ipopt was compiled from source code available at
    https://github.com/IDAES/Ipopt as part of the Institute for the Design of
    Advanced Energy Systems Process Systems Engineering Framework (IDAES PSE
    Framework) Copyright (c) 2018-2019. See https://github.com/IDAES/idaes-pse.

This version of Ipopt was compiled using HSL, a collection of Fortran codes
    for large-scale scientific computation.  All technical papers, sales and
    publicity material resulting from use of the HSL codes within IPOPT must
    contain the following acknowledgement:
        HSL, a collection of Fortran codes for large-scale scientific
        computation. See http://www.hsl.rl.ac.uk.
******************************************************************************

This is Ipopt version 3.13.2, running with linear solver ma27.

Number of nonzeros in equality constraint Jacobian...:     1336
Number of nonzeros in inequality constraint Jacobian.:        0
Number of nonzeros in Lagrangian Hessian.............:     1696

Total number of variables............................:      512
                     variables with only lower bounds:      128
                variables with lower and upper bounds:      320
                     variables with only upper bounds:        0
Total number of equality constraints.................:      508
Total number of inequality constraints...............:        0
        inequality constraints with only lower bounds:        0
   inequality constraints with lower and upper bounds:        0
        inequality constraints with only upper bounds:        0

iter    objective    inf_pr   inf_du lg(mu)  ||d||  lg(rg) alpha_du alpha_pr  ls
   0  0.0000000e+00 1.62e+00 7.99e-15  -1.0 0.00e+00    -  0.00e+00 0.00e+00   0
   1  1.6010249e+00 2.57e+00 3.58e+05  -1.0 1.41e+06    -  9.71e-02 7.75e-02h  2
   2  1.7946907e+00 2.12e+00 3.55e+05  -1.0 1.18e+06    -  4.79e-03 7.97e-03h  3
   3  2.4036422e+00 1.49e+00 3.44e+05  -1.0 8.70e+05    -  5.00e-02 2.48e-02h  3
   4  2.6770487e+00 1.48e+00 3.40e+05  -1.0 8.51e+05    -  1.17e-01 1.11e-02h  3
   5  2.8135068e+00 1.47e+00 3.38e+05  -1.0 8.43e+05    -  8.40e-02 5.31e-03h  3
   6  3.0704312e+00 1.46e+00 3.35e+05  -1.0 1.09e+06    -  1.53e-01 8.57e-03h  2
   7  1.2922676e+01 2.59e+00 2.25e+07  -1.0 2.08e+06    -  1.31e-01 9.71e-02h  1
   8  9.3117847e+01 2.40e+00 1.78e+07  -1.0 2.66e+06    -  1.08e-01 2.21e-01h  2
   9  8.6750476e+01 1.21e+00 8.18e+07  -1.0 9.55e+05  -4.0 1.52e-04 3.54e-02f  2
iter    objective    inf_pr   inf_du lg(mu)  ||d||  lg(rg) alpha_du alpha_pr  ls
  10  8.6937833e+01 1.17e+00 7.85e+07  -1.0 4.40e+05  -4.5 4.26e-01 4.04e-02h  1
  11  8.7060578e+01 1.17e+00 7.83e+07  -1.0 6.79e+05  -5.0 4.79e-01 1.78e-03h  1
  12  9.1043923e+01 1.14e+00 7.64e+07  -1.0 1.24e+06  -5.4 4.84e-01 2.49e-02h  4
  13  9.1504176e+01 1.13e+00 7.60e+07  -1.0 8.85e+05  -5.0 4.54e-01 5.17e-03h  6
  14  9.3994469e+01 1.11e+00 7.44e+07  -1.0 9.92e+05  -5.5 5.21e-01 2.07e-02h  4
  15  9.4003208e+01 1.11e+00 7.44e+07  -1.0 1.13e+06  -2.3 2.57e-01 2.21e-04h  5
  16  9.3984871e+01 1.11e+00 7.44e+07  -1.0 9.94e+05  -2.8 7.43e-02 2.28e-04h 10
  17  9.3375436e+01 1.11e+00 7.44e+07  -1.0 2.68e+07  -3.3 7.70e-05 1.94e-04f  8
  18r 9.3375436e+01 1.11e+00 1.00e+03   0.0 0.00e+00  -3.8 0.00e+00 4.17e-07R  8
  19r 9.3375378e+01 1.05e+00 9.98e+02   0.0 2.67e+03    -  1.03e-02 1.35e-03f  1
iter    objective    inf_pr   inf_du lg(mu)  ||d||  lg(rg) alpha_du alpha_pr  ls
  20r 9.3375256e+01 1.00e+00 9.92e+02   0.0 3.20e+03    -  1.40e-02 5.71e-03f  1
  21r 9.3375340e+01 9.88e-01 9.89e+02   0.0 5.68e+03    -  3.10e-03 3.77e-03f  1
  22  9.3381317e+01 9.88e-01 4.87e+03  -1.0 7.00e+05    -  4.93e-01 1.05e-04h  1
  23  9.5236122e+01 9.70e-01 4.61e+03  -1.0 1.06e+06    -  4.32e-01 1.88e-02h  4
  24  9.5738665e+01 9.66e-01 3.99e+03  -1.0 1.19e+06    -  4.10e-01 4.33e-03h  6
  25  2.4527069e+02 8.91e-01 2.22e+05  -1.0 3.42e+06    -  2.20e-01 2.47e-01h  1
  26  2.4998798e+02 8.87e-01 2.21e+05  -1.0 4.50e+06    -  8.34e-02 4.60e-03h  1
  27  2.9569702e+02 8.63e-01 2.14e+05  -1.0 7.09e+06    -  3.82e-02 2.73e-02h  1
  28  3.0897526e+02 8.57e-01 2.13e+05  -1.0 7.17e+06    -  9.39e-03 7.28e-03h  1
  29  2.1348668e+03 4.24e-01 8.09e+05  -1.0 7.13e+06    -  4.00e-03 5.05e-01h  1
iter    objective    inf_pr   inf_du lg(mu)  ||d||  lg(rg) alpha_du alpha_pr  ls
  30  2.1308516e+03 4.22e-01 8.06e+05  -1.0 3.05e+06    -  1.74e-02 3.56e-03f  1
  31  2.1317422e+03 4.22e-01 8.06e+05  -1.0 5.57e+06    -  2.81e-03 2.41e-04h  1
  32  2.1449369e+03 4.21e-01 8.03e+05  -1.0 6.63e+06    -  3.47e-02 2.92e-03h  1
  33  2.5034542e+03 3.88e-01 7.56e+05  -1.0 6.10e+06    -  6.53e-03 8.26e-02h  2
  34  2.9566612e+03 3.72e-01 7.06e+05  -1.0 6.69e+06    -  1.73e-01 8.69e-02h  1
  35  2.9752567e+03 3.70e-01 7.03e+05  -1.0 4.80e+06    -  2.52e-01 4.94e-03h  8
  36  3.4198187e+03 5.13e-01 6.93e+05  -1.0 2.33e+07    -  2.27e-01 2.24e-02h  1
  37  3.4224944e+03 5.12e-01 6.92e+05  -1.0 3.37e+06    -  1.81e-01 1.93e-03h 10
  38  3.4284855e+03 5.12e-01 6.91e+05  -1.0 6.47e+06    -  1.93e-01 9.67e-04h 11
  39  5.4690165e+03 7.64e-01 1.88e+06  -1.0 2.41e+07    -  2.34e-01 8.53e-02h  3
iter    objective    inf_pr   inf_du lg(mu)  ||d||  lg(rg) alpha_du alpha_pr  ls
  40  5.4717415e+03 7.64e-01 1.88e+06  -1.0 4.77e+06    -  1.50e-01 4.83e-04h 12
  41  5.4717260e+03 7.64e-01 1.32e+08  -1.0 1.94e+06  -4.3 4.11e-01 8.19e-05h  1
  42  5.4717121e+03 7.64e-01 1.04e+08  -1.0 1.84e+06  -4.7 3.83e-01 6.08e-05f 14
  43  5.4717036e+03 7.64e-01 2.29e+07  -1.0 3.98e+06  -4.3 1.54e-01 1.84e-05f 16
  44  5.4716909e+03 7.64e-01 1.88e+06  -1.0 3.42e+07  -4.8 2.36e-03 1.88e-06f 18
  45r 5.4716909e+03 7.64e-01 1.00e+03  -0.1 0.00e+00  -2.6 0.00e+00 3.43e-07R  2
  46r 5.4716899e+03 3.46e-01 1.01e+03  -0.1 6.71e+03    -  7.17e-03 1.29e-03f  1
  47r 5.4716899e+03 3.46e-01 9.99e+02  -0.5 0.00e+00    -  0.00e+00 3.68e-07R  2
  48r 5.4716887e+03 3.20e-01 9.97e+02  -0.5 1.84e+03    -  6.70e-03 2.28e-03f  1
  49r 5.4716858e+03 2.90e-01 9.91e+02  -0.5 3.05e+03    -  3.57e-03 6.03e-03f  1
iter    objective    inf_pr   inf_du lg(mu)  ||d||  lg(rg) alpha_du alpha_pr  ls
  50  5.4716820e+03 2.89e-01 3.47e+02  -1.0 7.49e+05    -  3.32e-01 9.85e-04h  1
  51  5.4726553e+03 2.89e-01 9.10e+04  -1.0 2.06e+06    -  2.30e-01 8.81e-04h  1
  52  5.4757168e+03 2.88e-01 8.27e+05  -1.0 2.03e+06    -  2.80e-01 2.41e-03h  5
  53  6.0228982e+03 1.69e+00 3.57e+06  -1.0 1.35e+07    -  3.68e-02 3.68e-02s 18
  54  6.3317335e+03 1.20e+01 9.62e+06  -1.0 1.77e+06    -  2.52e-01 2.52e-01s 18
  55  7.6361125e+03 2.17e+01 2.24e+07  -1.0 2.76e+06    -  4.31e-01 4.31e-01s 18
  56  8.0589579e+03 2.37e+01 9.64e+06  -1.0 1.94e+06    -  4.10e-01 4.10e-01s 18
  57r 8.0589579e+03 2.37e+01 1.00e+03   1.4 0.00e+00  -3.0 0.00e+00 0.00e+00R  1
  58r 8.0589618e+03 1.08e+01 1.03e+03   1.4 7.78e+03    -  8.48e-03 2.33e-03f  1
  59r 8.0589619e+03 9.58e+00 1.06e+03   1.4 1.56e+03    -  1.24e-02 4.05e-03f  1
iter    objective    inf_pr   inf_du lg(mu)  ||d||  lg(rg) alpha_du alpha_pr  ls
  60r 8.0589624e+03 8.74e+00 1.09e+03   1.4 5.60e+02    -  4.48e-02 1.42e-02f  1
  61r 8.0589628e+03 9.96e+00 1.28e+03   1.4 3.06e+02    -  4.62e-02 1.95e-02f  1
  62r 8.0589631e+03 1.02e+01 1.35e+03   1.4 2.01e+02    -  2.17e-01 3.47e-02f  1
  63r 8.0589658e+03 1.03e+01 1.11e+03   1.4 4.81e+01    -  3.85e-01 2.29e-01f  1
  64r 8.0589658e+03 1.02e+01 1.09e+03   1.4 5.99e+00   4.0 7.79e-03 1.52e-02h  1
  65r 8.0589658e+03 9.80e+00 2.85e+03   1.4 6.27e+00   3.5 1.45e-02 9.14e-02h  1
  66r 8.0589658e+03 9.62e+00 5.21e+03   1.4 5.66e+00   3.9 3.60e-02 5.06e-02h  1
  67r 8.0589658e+03 6.62e+00 1.45e+04   1.4 5.30e+00   3.5 1.11e-01 8.79e-01h  1
  68r 8.0589658e+03 6.02e+00 4.46e+03   1.4 8.05e-01   3.0 8.90e-01 9.62e-01f  1
  69r 8.0589658e+03 5.99e+00 1.58e+03   1.4 3.74e-02   4.3 9.90e-01 1.00e+00f  1
iter    objective    inf_pr   inf_du lg(mu)  ||d||  lg(rg) alpha_du alpha_pr  ls
  70r 8.0589658e+03 5.96e+00 2.29e+03   1.4 8.48e-02   3.8 9.91e-01 1.00e+00f  1
  71r 8.0589666e+03 3.72e+00 2.27e+03   1.4 1.55e+03    -  2.13e-02 4.78e-03f  1
  72r 8.0589660e+03 3.90e+00 2.23e+03   1.4 1.97e+02    -  9.75e-02 2.01e-02f  1
  73r 8.0589660e+03 4.09e+00 1.98e+03   1.4 2.97e+01    -  8.42e-01 1.20e-01f  1
  74r 8.0589636e+03 1.13e+01 8.20e+02   1.4 2.89e+01    -  4.38e-01 9.17e-01f  1
  75r 8.0589680e+03 1.10e+01 4.80e+02   0.7 3.42e+01    -  9.50e-01 5.17e-01f  1
  76r 8.0589680e+03 1.08e+01 5.29e+02   0.7 9.86e+00   3.4 2.25e-02 2.26e-02f  1
  77r 8.0589680e+03 1.00e+01 1.70e+03   0.7 7.32e+00   2.9 4.83e-03 1.62e-01h  1
  78r 8.0589680e+03 7.85e+00 1.70e+03   0.7 5.48e+00   2.4 1.09e-01 5.05e-01h  1
  79r 8.0589680e+03 4.39e+00 7.34e+02   0.7 5.29e+00   1.9 4.34e-01 6.59e-01f  1
iter    objective    inf_pr   inf_du lg(mu)  ||d||  lg(rg) alpha_du alpha_pr  ls
  80r 8.0589680e+03 4.27e+00 9.45e+02   0.7 1.19e+01   1.5 6.64e-01 9.84e-03f  1
  81r 8.0589680e+03 6.82e-01 4.61e+02   0.7 4.77e+00   1.9 1.00e+00 7.55e-01f  1
  82r 8.0589680e+03 3.59e-01 4.47e+02   0.7 1.03e+01   1.4 6.77e-01 3.15e-02f  1
  83r 8.0589680e+03 1.46e+00 2.26e+02   0.7 3.50e+00   0.9 1.00e+00 8.55e-01f  1
  84r 8.0589680e+03 3.10e+00 8.49e+01  -0.0 4.76e+00   0.5 8.32e-01 8.35e-01f  1
  85r 8.0589680e+03 2.58e+00 5.83e+02  -0.0 1.24e+01  -0.0 6.32e-01 1.67e-01f  1
  86r 8.0589680e+03 1.99e+00 2.67e+02  -0.0 3.40e+00   0.4 5.01e-01 8.15e-01f  1
  87r 8.0589680e+03 4.95e+00 9.64e+02  -0.0 4.67e+01  -0.1 5.69e-01 1.86e-01f  1
  88r 8.0589680e+03 4.29e+00 7.41e+02  -0.0 2.44e+01  -0.5 2.75e-01 1.75e-01f  1
  89r 8.0589680e+03 4.26e+00 7.37e+02  -0.0 3.91e+00   4.4 5.26e-03 5.51e-03h  1
iter    objective    inf_pr   inf_du lg(mu)  ||d||  lg(rg) alpha_du alpha_pr  ls
  90r 8.0589680e+03 4.18e+00 1.64e+03  -0.0 2.66e+00   3.9 9.29e-04 4.22e-02h  1
  91r 8.0589680e+03 4.14e+00 3.01e+03  -0.0 2.65e+00   4.3 8.64e-03 2.84e-02h  1
  92r 8.0589680e+03 4.10e+00 6.78e+03  -0.0 2.44e+00   4.8 9.60e-03 2.75e-02h  1
  93r 8.0589680e+03 3.86e+00 1.29e+04  -0.0 2.33e+00   4.3 2.73e-02 1.58e-01h  1
  94r 8.0589680e+03 3.82e+00 1.29e+04  -0.0 1.92e+00   3.8 1.10e-01 3.27e-02h  1
  95r 8.0589680e+03 3.30e+00 9.44e+03  -0.0 1.80e+00   3.3 2.42e-01 3.82e-01h  1
  96r 8.0589680e+03 3.26e+00 9.04e+03  -0.0 1.27e+00   2.9 3.48e-01 4.58e-02h  1
  97r 8.0589680e+03 3.17e+00 8.56e+03  -0.0 2.83e+00   2.4 1.70e-01 5.34e-02f  1
  98r 8.0589680e+03 3.06e+00 8.25e+03  -0.0 7.12e+00   1.9 8.80e-02 3.58e-02f  1
  99r 8.0589680e+03 2.79e+00 8.04e+03  -0.0 1.52e+01   1.4 6.16e-02 2.48e-02f  1
iter    objective    inf_pr   inf_du lg(mu)  ||d||  lg(rg) alpha_du alpha_pr  ls
 100r 8.0589680e+03 2.44e+00 7.95e+03  -0.0 3.39e+01   0.9 4.76e-02 1.04e-02f  1
 101r 8.0589680e+03 1.83e+00 7.87e+03  -0.0 7.90e+01   0.5 2.39e-02 1.03e-02f  1
 102r 8.0589680e+03 1.81e+00 8.00e+03  -0.0 1.54e+01  -0.0 1.97e-01 6.39e-03f  1
 103r 8.0589680e+03 1.80e+00 7.95e+03  -0.0 5.69e+01  -0.5 2.37e-02 8.67e-03f  1
 104r 8.0589681e+03 2.08e+00 8.66e+03  -0.0 9.23e+03    -  2.03e-03 4.81e-03f  1
 105r 8.0589681e+03 1.86e+00 7.72e+03  -0.0 3.85e+00  -0.1 2.44e-01 1.08e-01f  1
 106r 8.0589681e+03 1.77e+00 7.35e+03  -0.0 1.70e+01  -0.5 2.10e-01 4.77e-02f  1
 107r 8.0589691e+03 1.73e+00 7.18e+03  -0.0 2.31e+02    -  3.18e-01 2.28e-02f  1
 108r 8.0589822e+03 1.11e+00 4.62e+03  -0.0 2.38e+02    -  5.76e-01 3.56e-01f  1
 109r 8.0589510e+03 1.03e+00 4.29e+03  -0.0 1.44e+03    -  3.40e-03 7.31e-02f  1
iter    objective    inf_pr   inf_du lg(mu)  ||d||  lg(rg) alpha_du alpha_pr  ls
 110r 8.0589904e+03 1.60e-01 8.80e+02  -0.0 1.82e+02    -  5.47e-01 1.00e+00h  1
 111  8.0578127e+03 2.01e-01 2.46e+04  -1.0 1.08e+06    -  4.02e-01 1.18e-02f  3
 112  8.0578483e+03 2.01e-01 2.43e+04  -1.0 6.95e+05    -  3.98e-01 6.59e-04h  7
 113  8.0581207e+03 2.00e-01 2.42e+04  -1.0 2.15e+06    -  3.64e-01 8.67e-04h  6
 114  8.0619042e+03 2.00e-01 2.39e+04  -1.0 2.21e+06    -  3.65e-01 2.94e-03h  5
 115  8.0634722e+03 2.00e-01 2.39e+04  -1.0 4.30e+06    -  3.48e-01 6.17e-04h 10
 116  8.0659167e+03 2.00e-01 4.14e+04  -1.0 1.05e+07    -  4.11e-01 2.29e-04h 11
 117  8.0982699e+03 2.00e-01 6.18e+04  -1.0 4.52e+07    -  1.99e-01 5.54e-04h 10
 118  8.0982700e+03 2.00e-01 6.01e+05  -1.0 1.77e+06  -3.5 3.95e-01 4.21e-05h 11
 119  8.4695959e+03 1.99e-01 5.54e+05  -1.0 1.22e+08    -  8.46e-02 2.22e-03h  8
iter    objective    inf_pr   inf_du lg(mu)  ||d||  lg(rg) alpha_du alpha_pr  ls
 120  2.2176151e+04 2.06e-01 2.22e+06  -1.0 1.11e+08    -  9.39e-02 6.76e-02h  3
 121  2.2175539e+04 1.09e+00 7.94e+08  -1.0 8.54e+05  -4.0 4.49e-01 5.39e-02w  1
 122  2.2340640e+04 8.48e+00 2.67e+10  -1.0 3.26e+06  -4.5 2.64e-01 3.01e-01w  1
 123  2.2345986e+04 8.46e+00 2.67e+10  -1.0 3.70e+06  -4.9 1.29e-01 1.94e-03w  1
 124  2.2176040e+04 2.05e-01 1.09e+07  -1.0 2.75e+07  -5.4 4.49e-01 6.74e-03h  3
 125  2.2176093e+04 2.04e-01 1.11e+07  -1.0 2.45e+06  -4.1 2.95e-01 3.16e-04h 10
 126r 2.2176093e+04 2.04e-01 1.00e+03  -0.7 0.00e+00  -2.8 0.00e+00 2.55e-07R 19
 127r 2.2176093e+04 3.98e-01 1.06e+03  -0.7 3.56e+03    -  1.21e-02 1.02e-03f  1
 128r 2.2176094e+04 2.99e+00 1.14e+03  -0.7 8.78e+02    -  1.77e-02 3.45e-03f  1
 129r 2.2176095e+04 2.94e+00 1.31e+03  -0.7 9.67e+02    -  4.84e-02 1.53e-02f  1
iter    objective    inf_pr   inf_du lg(mu)  ||d||  lg(rg) alpha_du alpha_pr  ls
 130r 2.2176095e+04 2.92e+00 1.62e+03  -0.7 1.98e+03    -  6.47e-02 9.44e-03f  1
 131r 2.2176096e+04 2.88e+00 2.03e+03  -0.7 1.09e+03    -  8.95e-02 1.26e-02f  1
 132r 2.2176097e+04 3.06e+00 2.04e+03  -0.7 1.55e+03    -  1.46e-02 1.06e-02f  1
 133r 2.2176097e+04 3.82e+00 2.23e+03  -0.7 1.17e+03    -  4.78e-02 8.99e-03f  1
 134r 2.2176098e+04 3.65e+00 2.21e+03  -0.7 8.89e+02    -  6.10e-02 4.52e-02f  1
 135r 2.2176099e+04 3.49e+00 3.69e+03  -0.7 5.33e+02    -  3.63e-01 4.41e-02f  1
 136r 2.2176101e+04 3.47e+00 2.05e+03  -0.7 6.62e+02    -  1.36e-01 2.94e-01f  1
 137r 2.2176101e+04 3.46e+00 2.11e+03  -0.7 4.95e+03    -  1.30e-02 1.58e-03f  1
 138r 2.2176098e+04 3.42e+00 2.29e+03  -0.7 2.70e+03    -  8.50e-02 2.27e-02f  1
 139r 2.2176098e+04 3.27e+00 1.93e+03  -0.7 2.27e+00   2.0 3.93e-02 9.50e-02h  1
iter    objective    inf_pr   inf_du lg(mu)  ||d||  lg(rg) alpha_du alpha_pr  ls
 140r 2.2176098e+04 2.41e+00 1.26e+03  -0.7 3.27e+00   1.5 1.98e-01 2.65e-01h  1
 141r 2.2176098e+04 2.14e+00 1.63e+03  -0.7 2.41e+00   1.0 3.66e-01 1.10e-01h  1
 142r 2.2176098e+04 1.86e+00 1.64e+03  -0.7 2.53e+00   0.6 3.14e-01 1.30e-01h  1
 143r 2.2176099e+04 1.84e+00 1.73e+03  -0.7 2.44e+03    -  9.27e-02 1.08e-02f  1
 144r 2.2176092e+04 1.71e+00 2.30e+03  -0.7 8.42e+02    -  3.93e-01 7.23e-02h  1
 145r 2.2176061e+04 7.71e-01 9.22e+02  -0.7 5.85e+02    -  9.79e-02 5.49e-01h  1
 146r 2.2176061e+04 3.04e-01 4.05e+02  -0.7 7.73e-01   0.1 9.90e-01 6.06e-01h  1
 147r 2.2176061e+04 9.88e-02 5.39e+00  -0.7 4.58e-01  -0.4 9.90e-01 1.00e+00h  1
 148  2.2167752e+04 6.18e-01 5.19e+04  -1.0 1.82e+06    -  2.41e-01 4.66e-03f  2
 149  2.2165759e+04 6.15e-01 6.10e+04  -1.0 7.58e+05    -  3.82e-01 4.85e-03h  1
iter    objective    inf_pr   inf_du lg(mu)  ||d||  lg(rg) alpha_du alpha_pr  ls
 150  2.2081394e+04 6.14e-01 5.73e+05  -1.0 7.30e+07    -  4.00e-01 1.45e-03f  1
 151  2.2104532e+04 6.14e-01 2.99e+06  -1.0 1.22e+08    -  1.34e-01 2.40e-04h  8
 152  2.2127786e+04 6.14e-01 3.98e+06  -1.0 2.53e+08    -  7.00e-02 8.46e-05h 12
 153  2.2141746e+04 6.14e-01 5.04e+06  -1.0 2.58e+08    -  6.88e-02 4.98e-05h 13
 154  2.2149863e+04 6.14e-01 6.15e+06  -1.0 2.61e+08    -  6.85e-02 2.86e-05h 14
 155r 2.2149863e+04 6.14e-01 1.00e+03  -0.2 0.00e+00    -  0.00e+00 4.68e-07R 20
 156r 2.2149864e+04 4.57e-01 1.01e+03  -0.2 6.27e+03    -  3.07e-03 1.56e-03f  1
 157r 2.2149864e+04 4.48e-01 2.58e+03  -0.2 5.49e+02    -  2.00e-01 3.28e-03f  1
 158r 2.2149860e+04 3.89e+00 2.06e+03  -0.2 6.29e+02    -  7.79e-03 6.44e-02f  1
 159r 2.2149859e+04 3.80e+00 2.66e+03  -0.2 9.21e+02    -  1.25e-01 2.31e-02f  1
iter    objective    inf_pr   inf_du lg(mu)  ||d||  lg(rg) alpha_du alpha_pr  ls
 160r 2.2149859e+04 3.77e+00 2.68e+03  -0.2 3.06e+02    -  1.26e-02 7.29e-03f  1
 161r 2.2149861e+04 3.64e+00 2.57e+03  -0.2 3.30e+02    -  3.44e-02 3.43e-02f  1
 162r 2.2149860e+04 3.53e+00 2.76e+03  -0.2 5.55e+02    -  7.56e-02 3.13e-02f  1
 163r 2.2149860e+04 3.32e+00 2.82e+03  -0.2 3.70e+02    -  1.35e-01 8.30e-02f  1
 164r 2.2149856e+04 5.00e+00 2.20e+03  -0.2 2.44e+02    -  1.15e-01 1.50e-01f  1
 165r 2.2149856e+04 4.88e+00 2.35e+03  -0.2 1.00e+03    -  6.15e-02 2.40e-02f  1
 166r 2.2149856e+04 4.84e+00 2.49e+03  -0.2 4.38e+02    -  4.98e-02 7.96e-03f  1
 167r 2.2149856e+04 4.73e+00 2.73e+03  -0.2 3.96e+02    -  6.57e-02 2.24e-02f  1
 168r 2.2149856e+04 3.71e+00 1.62e+03  -0.2 4.50e+00   2.0 5.65e-02 2.15e-01h  1
 169r 2.2149854e+04 3.73e+00 2.06e+03  -0.2 2.68e+02    -  2.00e-01 6.77e-02f  1
iter    objective    inf_pr   inf_du lg(mu)  ||d||  lg(rg) alpha_du alpha_pr  ls
 170r 2.2149853e+04 4.02e+00 2.60e+03  -0.2 3.62e+02    -  3.02e-01 3.29e-02f  1
 171r 2.2149850e+04 5.63e+00 1.98e+03  -0.2 3.80e+02    -  1.75e-01 2.21e-01h  1
 172r 2.2149849e+04 5.48e+00 1.96e+03  -0.2 1.13e+03    -  7.12e-02 2.73e-02h  1
 173r 2.2149848e+04 5.16e+00 2.01e+03  -0.2 1.88e+02    -  2.31e-01 5.74e-02h  1
 174r 2.2149847e+04 4.85e+00 1.93e+03  -0.2 4.39e+02    -  1.44e-01 6.05e-02h  1
 175r 2.2149841e+04 3.79e+00 1.24e+03  -0.2 1.16e+02    -  2.44e-01 3.45e-01h  1
 176r 2.2149841e+04 4.91e+00 1.29e+03  -0.2 1.25e+02    -  7.97e-01 1.37e-01h  1
 177r 2.2149831e+04 3.87e+00 1.62e+03  -0.2 4.35e+02    -  8.75e-02 6.72e-01h  1
 178r 2.2149831e+04 3.68e+00 1.72e+03  -0.2 1.97e+02    -  6.57e-01 4.81e-02h  1
 179r 2.2149832e+04 3.33e+00 2.13e+03  -0.2 3.33e+02    -  8.85e-01 9.71e-02f  1
iter    objective    inf_pr   inf_du lg(mu)  ||d||  lg(rg) alpha_du alpha_pr  ls
 180r 2.2149834e+04 4.27e+00 2.21e+03  -0.2 6.99e+02    -  2.60e-01 1.21e-01F  1
 181r 2.2149833e+04 4.07e+00 9.81e+02  -0.2 6.87e+02    -  2.13e-01 4.69e-02h  1
 182r 2.2149833e+04 3.66e+00 2.71e+02  -0.2 9.08e+01    -  6.93e-01 1.00e+00h  1
 183r 2.2149836e+04 3.23e+00 4.76e+02  -0.2 2.21e+02    -  6.30e-01 1.78e-01f  1
 184r 2.2149836e+04 3.25e+00 3.22e+02  -0.2 1.09e+02    -  3.38e-01 1.08e-01f  3
 185r 2.2149835e+04 3.82e+00 3.38e+02  -0.2 3.40e+02    -  1.00e-01 4.81e-02f  1
 186r 2.2149836e+04 3.50e+00 3.34e+02  -0.2 1.70e+02    -  3.13e-01 8.39e-02h  1
 187r 2.2149837e+04 3.18e+00 3.50e+02  -0.2 1.96e+02    -  2.22e-01 9.00e-02f  1
 188r 2.2149837e+04 3.24e+00 1.20e+02  -0.2 7.64e+01    -  5.79e-01 2.18e-01h  2
 189r 2.2149837e+04 3.95e+00 7.20e+02  -0.2 6.33e+01    -  7.72e-01 1.03e-01f  1
iter    objective    inf_pr   inf_du lg(mu)  ||d||  lg(rg) alpha_du alpha_pr  ls
 190r 2.2149837e+04 3.80e+00 5.68e+02  -0.2 1.01e+02    -  1.65e-01 3.77e-02h  2
 191r 2.2149837e+04 3.50e+00 4.51e+02  -0.2 1.62e+02    -  5.27e-01 7.90e-02h  1
 192r 2.2149837e+04 3.24e+00 1.95e+02  -0.2 7.56e+01    -  4.34e-01 1.96e-01h  1
 193r 2.2149837e+04 3.49e+00 1.99e+02  -0.2 1.69e+02    -  1.49e-01 6.37e-02f  2
 194r 2.2149836e+04 3.25e+00 1.70e+02  -0.2 1.61e+02    -  1.89e-01 6.90e-02h  1
 195r 2.2149836e+04 3.32e+00 1.58e+02  -0.2 4.80e+01    -  1.00e+00 2.50e-01h  3
 196r 2.2149836e+04 3.25e+00 3.45e+02  -0.2 1.21e+02    -  4.04e-01 6.87e-02f  2
 197r 2.2149837e+04 3.28e+00 1.41e+02  -0.2 6.65e+01    -  5.34e-01 1.65e-01h  1
 198r 2.2149837e+04 3.18e+00 2.30e+02  -0.2 5.98e+01    -  4.60e-01 3.73e-02f  2
 199r 2.2149832e+04 3.09e+00 4.34e+02  -0.2 2.73e+02    -  1.65e-01 2.62e-01h  1
iter    objective    inf_pr   inf_du lg(mu)  ||d||  lg(rg) alpha_du alpha_pr  ls
 200r 2.2149833e+04 2.97e+00 1.42e+03  -0.2 1.56e+02    -  8.04e-01 3.98e-02f  2
 201r 2.2149833e+04 3.11e+00 1.07e+03  -0.2 6.15e+02    -  8.27e-02 1.13e-02f  3
 202r 2.2149833e+04 3.04e+00 7.29e+02  -0.2 7.60e+01    -  4.55e-01 8.79e-02h  2
 203r 2.2149833e+04 3.11e+00 1.14e+03  -0.2 9.91e+01    -  1.00e+00 2.19e-02f  2
 204r 2.2149833e+04 3.06e+00 8.67e+02  -0.2 7.43e+01    -  3.01e-01 7.77e-02h  3
 205r 2.2149833e+04 3.08e+00 8.72e+02  -0.2 6.69e+01    -  5.57e-01 1.68e-02f  2
 206r 2.2149833e+04 3.10e+00 6.56e+02  -0.2 5.65e+01    -  2.35e-01 1.04e-01h  3
 207r 2.2149833e+04 3.04e+00 1.02e+03  -0.2 9.69e+01    -  7.61e-01 1.74e-02f  2
 208r 2.2149833e+04 3.07e+00 6.93e+02  -0.2 3.50e+02    -  9.23e-02 2.40e-02f  3
 209r 2.2149833e+04 3.05e+00 4.97e+02  -0.2 6.23e+01    -  3.92e-01 7.55e-02h  2
iter    objective    inf_pr   inf_du lg(mu)  ||d||  lg(rg) alpha_du alpha_pr  ls
 210r 2.2149833e+04 3.39e+00 5.70e+02  -0.2 7.83e+01    -  4.11e-01 4.59e-02w  1
 211r 2.2149834e+04 3.06e+00 4.68e+02  -0.2 8.27e+01    -  2.72e-01 1.23e-01h  1
 212r 2.2149833e+04 3.06e+00 4.31e+02  -0.2 4.71e+02    -  9.35e-02 1.16e-02f  3
 213r 2.2149833e+04 3.02e+00 3.83e+02  -0.2 7.92e+02    -  2.56e-02 1.43e-02h  1
 214r 2.2149827e+04 2.57e+00 6.55e+02  -0.2 8.69e+02    -  8.90e-02 1.52e-01h  1
 215r 2.2149827e+04 8.61e-01 1.95e+02  -0.2 2.23e+00   1.5 1.00e+00 7.56e-01h  1
 216r 2.2149829e+04 1.81e+00 4.25e+02  -0.2 1.12e+02    -  1.00e+00 1.86e-01f  2
 217r 2.2149829e+04 2.07e+00 1.61e+03  -0.2 9.10e+01    -  7.57e-01 3.56e-02f  2
 218r 2.2149829e+04 1.96e+00 5.32e+02  -0.2 2.40e+00   1.0 6.64e-01 6.34e-01h  1
 219r 2.2149829e+04 2.09e+00 1.37e+03  -0.2 1.21e+02    -  4.98e-01 3.55e-02f  2
iter    objective    inf_pr   inf_du lg(mu)  ||d||  lg(rg) alpha_du alpha_pr  ls
 220r 2.2149829e+04 2.05e+00 9.48e+02  -0.2 3.82e+00   0.6 6.67e-01 1.75e-02h  1
 221r 2.2149830e+04 2.64e+00 3.32e+02  -0.2 8.43e+01    -  1.00e+00 4.17e-01f  1
 222r 2.2149830e+04 2.51e+00 7.26e+02  -0.2 8.63e+01    -  3.37e-01 5.56e-02f  2
 223r 2.2149831e+04 2.50e+00 1.15e+03  -0.2 2.98e+03    -  1.20e-02 2.47e-03h  1
 224r 2.2149831e+04 2.48e+00 1.13e+03  -0.2 1.44e+02    -  1.62e-01 8.06e-03h  1
 225r 2.2149831e+04 2.37e+00 5.43e+02  -0.2 1.39e+02    -  4.54e-01 4.59e-02h  1
 226r 2.2149833e+04 9.20e-02 5.94e+01  -0.2 1.12e+02    -  1.00e+00 1.00e+00h  1
 227  2.2134936e+04 3.36e-01 1.91e+05  -1.0 1.78e+06    -  1.65e-01 1.38e-02f  2
 228  2.2133865e+04 3.31e-01 1.71e+05  -1.0 6.63e+05    -  3.67e-01 1.45e-02h  1
 229  2.2125831e+04 3.31e-01 2.26e+05  -1.0 1.87e+07    -  4.01e-01 3.09e-04f  1
iter    objective    inf_pr   inf_du lg(mu)  ||d||  lg(rg) alpha_du alpha_pr  ls
 230  2.1999118e+04 3.56e-01 1.68e+06  -1.0 2.94e+07    -  1.64e-01 3.03e-03f  4
 231  2.1978149e+04 3.56e-01 2.45e+06  -1.0 1.96e+07    -  1.11e-01 7.57e-04f  9
 232  2.1956068e+04 3.56e-01 5.96e+06  -1.0 3.54e+07    -  1.69e-01 4.13e-04f  9
 233  2.1864427e+04 3.55e-01 1.47e+07  -1.0 5.06e+07    -  2.43e-01 1.10e-03f  8
 234  2.1864372e+04 3.55e-01 4.24e+09  -1.0 1.15e+07  -2.3 1.19e-02 1.03e-05f  3
 235  2.1863689e+04 3.55e-01 3.30e+10  -1.0 1.07e+07  -2.8 2.80e-01 1.54e-04f  9
 236  2.1863441e+04 3.55e-01 3.50e+10  -1.0 1.11e+07  -3.3 3.57e-01 5.14e-05f 12
 237  2.1862827e+04 3.55e-01 2.63e+10  -1.0 1.28e+07  -3.8 5.70e-01 8.37e-05f 11
 238  2.1861811e+04 3.55e-01 1.80e+10  -1.0 1.45e+07  -4.2 7.46e-01 6.51e-05f 11
 239  2.1853876e+04 3.55e-01 3.89e+10  -1.0 7.46e+07  -4.7 8.87e-01 7.63e-05f 11
iter    objective    inf_pr   inf_du lg(mu)  ||d||  lg(rg) alpha_du alpha_pr  ls
 240  6.8704755e+03 3.06e+00 1.03e+13  -1.0 1.51e+08  -5.2 8.07e-01 1.25e-01f  1
 241  6.8644775e+03 1.78e+01 8.17e+12  -1.0 5.01e+06  -2.1 2.65e-01 2.01e-01F  1
 242  6.8683209e+03 1.63e+01 7.45e+12  -1.0 2.07e+06  -0.7 1.58e-01 8.53e-02h  2
MA27BD returned iflag=-4 and requires more memory.
 Increase liw from 21955 to 43910 and la from 25360 to 52102 and factorize again.
 243  6.8701230e+03 1.63e+01 7.44e+12  -1.0 4.80e+07  -1.2 4.36e-02 1.34e-03h  4
 244  6.8392118e+03 1.51e+01 6.85e+12  -1.0 3.90e+06  -0.8 2.05e-01 7.54e-02f  1
 245  6.8573435e+03 1.21e+01 2.57e+12  -1.0 1.48e+06  -0.4 2.35e-01 4.26e-01h  1
 246  6.8732562e+03 1.05e+01 1.48e+12  -1.0 2.22e+06   0.1 2.66e-01 1.31e-01h  2
 247  6.8720180e+03 1.04e+01 1.39e+12  -1.0 5.48e+06  -0.4 1.55e-01 9.78e-03f  5
 248  6.9039698e+03 7.72e+00 4.82e+12  -1.0 2.24e+06   0.0 3.19e-01 2.59e-01h  2
 249  6.9089018e+03 7.56e+00 4.90e+12  -1.0 2.31e+06   0.4 3.65e-01 2.06e-02h  4
iter    objective    inf_pr   inf_du lg(mu)  ||d||  lg(rg) alpha_du alpha_pr  ls
 250  6.9084182e+03 7.51e+00 4.88e+12  -1.0 1.19e+07  -0.0 5.76e-02 6.40e-03f  4
 251  6.9116360e+03 7.37e+00 4.91e+12  -1.0 1.94e+06   0.4 9.65e-01 1.88e-02h  5
 252  6.9597334e+03 6.92e+00 3.43e+13  -1.0 2.10e+06   0.8 8.99e-01 1.73e-01h  2
 253  6.9538569e+03 6.92e+00 3.42e+13  -1.0 6.01e+07   1.2 1.69e-02 9.16e-04f  5
 254  6.9538209e+03 6.85e+00 3.39e+13  -1.0 2.11e+06   0.8 9.90e-01 9.00e-03h  4
 255  6.9658197e+03 8.41e+00 3.86e+13  -1.0 1.53e+06   1.2 4.24e-01 1.15e-01h  2
 256  6.9551889e+03 2.15e+02 5.08e+13  -1.0 3.10e+06   0.7 3.40e-02 3.10e-02w  1
 257  6.9548064e+03 2.14e+02 5.08e+13  -1.0 5.41e+06   1.1 3.85e-03 1.11e-03w  1
 258  6.9547822e+03 2.14e+02 5.08e+13  -1.0 1.05e+07   0.7 3.02e-03 1.48e-05w  1
 259  6.9651259e+03 8.39e+00 3.86e+13  -1.0 1.13e+07   1.1 3.40e-02 1.94e-03f  4
iter    objective    inf_pr   inf_du lg(mu)  ||d||  lg(rg) alpha_du alpha_pr  ls
 260  6.9644039e+03 8.39e+00 3.86e+13  -1.0 2.27e+07   0.6 8.72e-02 2.68e-04f  7
 261  6.9643956e+03 8.39e+00 3.86e+13  -1.0 1.05e+06   1.0 1.63e-02 1.08e-04h  9
 262  6.9520691e+03 8.39e+00 4.59e+13  -1.0 3.54e+08   0.6 6.54e-07 2.97e-04f  3
 263  6.9516905e+03 8.33e+00 4.60e+13  -1.0 1.22e+06   1.0 1.18e-06 6.18e-03f  3
 264  6.9516916e+03 8.33e+00 4.60e+13  -1.0 5.50e+05   1.4 5.94e-02 3.70e-05h  1
 265  6.9486048e+03 2.17e+02 5.03e+13  -1.0 1.52e+06   0.9 2.46e-04 2.36e-02f  1
 266  6.9484410e+03 2.17e+02 5.03e+13  -1.0 3.30e+06   1.4 4.26e-03 1.02e-03h  1
 267  6.9484368e+03 2.17e+02 5.03e+13  -1.0 4.20e+06   0.9 4.14e-03 1.05e-05h  1
 268r 6.9484368e+03 2.17e+02 1.00e+03   2.3 0.00e+00   1.3 0.00e+00 5.03e-08R  2
 269r 6.9484367e+03 5.84e+01 1.46e+03   2.3 5.67e+03    -  2.94e-02 2.79e-02f  1
iter    objective    inf_pr   inf_du lg(mu)  ||d||  lg(rg) alpha_du alpha_pr  ls
 270  6.9484530e+03 5.83e+01 4.53e+00  -1.0 3.98e+05    -  1.63e-03 1.02e-03h  1
 271  6.9484695e+03 5.83e+01 5.18e+03  -1.0 1.79e+06    -  1.33e-01 6.92e-05h  1
 272  6.9521165e+03 5.75e+01 4.28e+04  -1.0 2.44e+06    -  1.30e-01 1.48e-02h  1
 273  6.9521309e+03 5.75e+01 9.00e+04  -1.0 2.71e+06    -  1.25e-01 6.41e-05h  1
 274  6.9477280e+03 5.70e+01 5.17e+05  -1.0 1.26e+06    -  3.84e-01 7.34e-03f  1
 275  6.3126535e+03 3.53e+01 5.52e+07  -1.0 2.14e+06    -  4.21e-01 3.81e-01f  1
 276  5.8365091e+03 3.48e+01 6.05e+07  -1.0 4.92e+07    -  2.70e-03 1.37e-02f  1
 277  5.6440036e+03 3.43e+01 6.37e+07  -1.0 3.77e+07    -  3.36e-02 1.42e-02f  1
 278  5.5787111e+03 3.43e+01 3.19e+09  -1.0 4.02e+07    -  1.13e-05 1.84e-04H  1
 279r 5.5787111e+03 3.43e+01 1.00e+03   1.5 0.00e+00    -  0.00e+00 4.12e-07R  7
iter    objective    inf_pr   inf_du lg(mu)  ||d||  lg(rg) alpha_du alpha_pr  ls
 280r 5.5787107e+03 1.42e+01 1.01e+03   1.5 1.84e+04    -  8.78e-03 1.85e-03f  1
 281  5.5787049e+03 1.42e+01 8.39e+02  -1.0 1.18e+07    -  1.67e-03 1.97e-06h  1
 282  5.5443068e+03 1.41e+01 5.24e+05  -1.0 1.69e+07    -  1.32e-04 1.10e-02H  1
 283  5.5443398e+03 1.41e+01 5.24e+05  -1.0 2.47e+07    -  1.56e-04 1.95e-05h  1
 284r 5.5443398e+03 1.41e+01 9.99e+02   1.1 0.00e+00   0.8 0.00e+00 2.31e-09R  2
 285r 5.5443391e+03 1.40e+01 9.97e+02   1.1 3.54e+03    -  1.07e-03 2.92e-03f  1
 286r 5.5443390e+03 1.40e+01 9.94e+02   1.1 7.94e+02    -  5.88e-03 1.89e-03f  1
 287r 5.5443388e+03 1.39e+01 1.16e+03   1.1 3.70e+02    -  9.19e-03 8.27e-03f  1
 288r 5.5443388e+03 1.37e+01 2.96e+03   1.1 6.04e+00   2.0 1.17e-01 4.01e-02f  1
 289r 5.5443385e+03 1.37e+01 3.51e+03   1.1 2.47e+02    -  4.11e-02 2.15e-02f  1
iter    objective    inf_pr   inf_du lg(mu)  ||d||  lg(rg) alpha_du alpha_pr  ls
 290r 5.5443385e+03 1.37e+01 9.22e+02   1.1 3.96e+02    -  2.85e-02 1.91e-02f  1
 291r 5.5443384e+03 1.36e+01 2.86e+03   1.1 1.01e+02    -  4.78e-02 4.43e-02f  1
 292r 5.5443385e+03 1.36e+01 8.59e+02   1.1 4.43e+02    -  1.10e-01 2.57e-02f  1
 293r 5.5443387e+03 1.36e+01 8.46e+02   1.1 2.62e+02    -  7.86e-02 4.85e-02f  1
 294r 5.5443390e+03 1.34e+01 9.31e+02   1.1 3.72e+01    -  1.87e-01 2.08e-01f  1
 295r 5.5443393e+03 1.33e+01 1.32e+03   1.1 5.89e+01    -  3.41e-01 1.41e-01f  1
 296r 5.5443393e+03 1.33e+01 1.48e+03   1.1 7.82e+00   3.3 2.09e-02 4.22e-02h  1
 297r 5.5443393e+03 1.33e+01 1.58e+04   1.1 5.17e+00   2.9 1.38e-02 2.44e-01h  1
 298r 5.5443393e+03 1.33e+01 1.72e+04   1.1 3.98e+00   3.3 5.46e-02 3.15e-01h  1
 299r 5.5443393e+03 1.32e+01 6.88e+04   1.1 2.64e+00   3.7 1.70e-01 3.40e-01h  1
iter    objective    inf_pr   inf_du lg(mu)  ||d||  lg(rg) alpha_du alpha_pr  ls
 300r 5.5443393e+03 1.32e+01 2.05e+04   1.1 1.70e+00   4.1 4.24e-01 8.55e-01h  1
 301r 5.5443393e+03 1.32e+01 1.80e+04   1.1 3.32e-01   4.6 2.38e-01 2.16e-01H  1
 302r 5.5443393e+03 1.32e+01 1.81e+04   1.1 4.71e-01   5.0 1.91e-01 1.20e-01h  2
 303r 5.5443393e+03 1.32e+01 1.64e+04   1.1 1.67e-01   4.5 2.63e-01 1.29e-01h  1
 304r 5.5443393e+03 1.32e+01 2.26e+04   1.1 4.43e-01   4.9 7.60e-02 3.97e-02f  3
 305r 5.5443393e+03 1.32e+01 4.28e+03   1.1 1.38e-01   4.5 9.11e-01 9.71e-01h  1
 306r 5.5443393e+03 1.32e+01 4.65e+03   1.1 8.25e-02   4.0 9.90e-01 3.46e-01f  2
 307r 5.5443393e+03 1.32e+01 1.41e+03   1.1 1.79e-01   3.5 9.90e-01 6.88e-01f  1
 308r 5.5443393e+03 1.31e+01 7.27e+03   1.1 8.49e-01   3.0 3.71e-01 5.64e-01f  1
 309r 5.5443393e+03 1.31e+01 2.17e+03   1.1 3.74e-02   4.4 1.00e+00 1.00e+00f  1
iter    objective    inf_pr   inf_du lg(mu)  ||d||  lg(rg) alpha_du alpha_pr  ls
 310r 5.5443393e+03 1.31e+01 1.01e+03   1.1 1.25e-01   3.9 1.00e+00 5.84e-01F  1
 311r 5.5443393e+03 1.31e+01 1.90e+03   1.1 3.12e+00   3.4 5.39e-02 9.63e-03f  2
 312r 5.5443393e+03 1.30e+01 2.25e+04   1.1 1.44e+00   2.9 1.00e+00 2.53e-01f  1
 313r 5.5443393e+03 1.29e+01 9.80e+03   1.1 4.41e-01   3.3 1.00e+00 1.00e+00f  1
 314r 5.5443393e+03 1.24e+01 3.34e+03   1.1 1.37e+00   2.9 3.34e-01 3.89e-01f  1
 315  5.5433945e+03 1.24e+01 2.60e+02  -1.0 1.03e+07    -  1.03e-02 1.17e-04f  1
 316  5.5305947e+03 1.24e+01 2.39e+04  -1.0 1.53e+07    -  1.63e-02 1.11e-03f  1
 317  5.5305947e+03 1.24e+01 2.10e+07  -1.0 2.15e+06   0.4 3.30e-03 1.38e-07h  1
 318  5.5114213e+03 1.24e+01 2.08e+07  -1.0 2.86e+07    -  8.46e-03 1.12e-03f  1
 319  5.5112180e+03 1.24e+01 2.04e+07  -1.0 2.69e+07    -  2.00e-02 1.18e-05h  1
iter    objective    inf_pr   inf_du lg(mu)  ||d||  lg(rg) alpha_du alpha_pr  ls
 320  5.5111954e+03 1.24e+01 1.99e+07  -1.0 3.57e+07    -  2.32e-02 1.15e-06h  2
 321  4.8787378e+03 1.36e+01 2.19e+08  -1.0 3.79e+07    -  2.81e-02 3.19e-02f  1
 322  4.9725477e+03 1.36e+01 2.19e+08  -1.0 1.10e+08    -  2.05e-02 2.55e-03h  1
 323  4.9840762e+03 1.36e+01 2.19e+08  -1.0 1.34e+08    -  1.88e-02 2.43e-04h  8
 324  5.0241351e+03 1.36e+01 2.18e+08  -1.0 1.36e+08    -  1.32e-03 1.32e-03s 18
 325r 5.0241351e+03 1.36e+01 9.99e+02   1.1 0.00e+00  -0.1 0.00e+00 0.00e+00R  1
 326r 5.0241346e+03 1.18e+01 9.97e+02   1.1 4.50e+03    -  4.07e-03 2.07e-03f  1
 327  5.0241342e+03 1.18e+01 1.00e+00  -1.0 5.38e+07    -  1.49e-07 9.69e-09f  5
 328  5.0241208e+03 1.18e+01 1.09e+00  -1.0 7.93e+06    -  1.07e-08 2.19e-06f  1
 329  5.0266994e+03 1.18e+01 1.88e+03  -1.0 2.90e+06    -  2.84e-06 3.34e-03h  2
iter    objective    inf_pr   inf_du lg(mu)  ||d||  lg(rg) alpha_du alpha_pr  ls
 330  5.0268633e+03 1.18e+01 1.90e+03  -1.0 2.62e+06    -  3.23e-04 3.23e-04s 11
 331  5.0336169e+03 1.16e+01 4.33e+04  -1.0 2.58e+06    -  1.20e-02 0.00e+00S 11
 332  5.0486079e+03 1.08e+01 3.65e+07  -1.0 1.85e+06    -  5.66e-03 6.72e-02h  1
 333  5.0468532e+03 1.08e+01 3.65e+07  -1.0 1.39e+07    -  6.89e-04 1.69e-03f  1
 334  4.9300832e+03 1.04e+01 3.42e+07  -1.0 1.44e+07    -  9.25e-03 3.91e-02f  1
 335  4.9302549e+03 1.04e+01 3.38e+07  -1.0 2.82e+06  -0.6 1.61e-07 3.42e-04f  2
 336  4.9304973e+03 1.04e+01 4.65e+07  -1.0 2.79e+06  -1.1 2.61e-04 5.42e-04h  2
 337  4.9338944e+03 1.03e+01 1.12e+09  -1.0 2.81e+06  -1.5 8.28e-04 7.52e-03h  3
 338  4.9340134e+03 1.03e+01 1.12e+09  -1.0 2.99e+06  -2.0 5.58e-02 2.78e-04h  3
 339  4.9343619e+03 1.03e+01 1.12e+09  -1.0 3.23e+06  -2.5 8.18e-04 8.18e-04s 12
iter    objective    inf_pr   inf_du lg(mu)  ||d||  lg(rg) alpha_du alpha_pr  ls
 340r 4.9343619e+03 1.03e+01 9.99e+02   1.0 0.00e+00  -2.1 0.00e+00 0.00e+00R  1
 341r 4.9343616e+03 9.38e+00 9.97e+02   1.0 5.78e+03    -  2.97e-03 1.58e-03f  1
 342r 4.9343610e+03 6.39e+00 9.93e+02   1.0 1.56e+03    -  2.10e-03 5.84e-03f  1
 343  4.9305129e+03 6.24e+00 5.05e+04  -1.0 1.03e+07    -  3.73e-02 2.39e-02f  1
 344  4.9305957e+03 6.24e+00 5.05e+04  -1.0 9.22e+06    -  9.97e-02 1.41e-04h  2
 345  4.9384529e+03 6.19e+00 5.17e+04  -1.0 6.41e+06    -  1.56e-01 8.67e-03H  1
 346  4.9063417e+03 1.03e+01 6.67e+11  -1.0 6.52e+06    -  1.06e-03 1.40e-03H  1
WARNING: Problem in step computation; switching to emergency mode.
 347r 4.9063417e+03 1.03e+01 9.99e+02   1.0 0.00e+00  18.0 0.00e+00 0.00e+00R  1
 348r 4.9063417e+03 1.24e+01 9.96e+02   1.0 1.03e+04    -  1.00e-02 9.90e-04f  1
 349r 4.9063416e+03 1.57e+01 1.78e+03   1.0 1.57e+03    -  9.99e-04 3.56e-03f  1
iter    objective    inf_pr   inf_du lg(mu)  ||d||  lg(rg) alpha_du alpha_pr  ls
 350r 4.9063416e+03 1.58e+01 2.21e+12   1.0 1.21e+02   0.0 1.55e-02 5.07e-03f  1
WARNING: Problem in step computation; switching to emergency mode.
 351r 4.9063416e+03 1.58e+01 2.21e+12   1.0 1.21e+02  19.7 0.00e+00 0.00e+00R  1
WARNING: Problem in step computation; switching to emergency mode.
Restoration phase is called at point that is almost feasible,
  with constraint violation 0.000000e+00. Abort.
Restoration phase in the restoration phase failed.

Number of Iterations....: 351

                                   (scaled)                 (unscaled)
Objective...............:   4.9063416124988253e+03    4.9063416124988253e+03
Dual infeasibility......:   2.2149247877325298e+12    2.2149247877325298e+12
Constraint violation....:   1.5836496301501080e+01    1.5836496301501080e+01
Complementarity.........:   2.4977054756968599e+07    2.4977054756968599e+07
Overall NLP error.......:   2.2149247877325298e+12    2.2149247877325298e+12


Number of objective function evaluations             = 1087
Number of objective gradient evaluations             = 173
Number of equality constraint evaluations            = 1087
Number of inequality constraint evaluations          = 0
Number of equality constraint Jacobian evaluations   = 363
Number of inequality constraint Jacobian evaluations = 0
Number of Lagrangian Hessian evaluations             = 352
Total CPU secs in IPOPT (w/o function evaluations)   =      0.889
Total CPU secs in NLP function evaluations           =     14.428

EXIT: Restoration Failed!
